c description: Random 3-CNF over 21 variables and 89 clauses
c generator: CNFgen (0.9.2)
c copyright: (C) 2012-2022 Massimo Lauria <massimo.lauria@uniroma1.it>
c url: https://massimolauria.net/cnfgen
c command line: cnfgen --output CNF_4.28/21_bit_89_358.cnf randkcnf 3 21 89
c
p cnf 21 89
-6 9 -17 0
-1 11 13 0
7 -11 13 0
-1 9 18 0
-5 10 20 0
1 5 18 0
-1 -16 -19 0
-4 -6 -8 0
8 9 -14 0
-7 -17 -19 0
-7 8 13 0
6 7 19 0
3 -5 20 0
3 4 -7 0
2 -7 -17 0
-2 -6 -14 0
-2 -9 -17 0
-2 9 -18 0
5 9 21 0
1 -4 17 0
-3 -13 19 0
-3 -6 17 0
8 10 17 0
-11 16 18 0
-6 -9 16 0
-5 -6 -21 0
-2 -8 -15 0
6 15 -19 0
-12 16 -18 0
-16 17 20 0
-4 -6 9 0
17 -18 -21 0
-3 11 -14 0
-6 -8 17 0
4 7 -14 0
9 -13 -17 0
6 -7 -17 0
-8 -14 -16 0
-5 -7 20 0
-6 -9 -12 0
-7 8 17 0
-9 11 13 0
-3 -8 9 0
-1 -5 -12 0
-5 9 -21 0
4 -18 -20 0
-6 -10 16 0
5 17 -20 0
11 -16 -18 0
-5 14 20 0
1 -6 11 0
-4 5 -21 0
-9 -11 21 0
7 16 -19 0
-6 7 -13 0
-7 17 -21 0
6 -9 15 0
-7 8 -21 0
3 -5 11 0
-1 5 19 0
-10 12 14 0
2 8 13 0
-3 -8 10 0
-11 16 19 0
-3 -13 -18 0
-3 -12 14 0
1 6 16 0
6 -13 21 0
-2 5 -12 0
-10 -19 20 0
10 15 18 0
-5 13 17 0
-6 13 20 0
-5 -14 -16 0
4 -10 11 0
2 -14 15 0
3 15 -21 0
12 17 20 0
-2 10 16 0
-8 15 -17 0
6 12 19 0
-1 4 8 0
-1 13 -20 0
-5 -9 -10 0
-5 16 -20 0
-6 -8 -16 0
-4 19 21 0
-4 -6 -7 0
-1 -2 18 0
